NAME: random-48-20319
TYPE: TSP
COMMENT: size=48 seed=20319
DIMENSION: 98
EDGE_WEIGHT_TYPE: EUC_2D
NODE_COORD_SECTION
+0 433 647
-0 433 647
+1 895 265
-1 651 11
+2 543 347
-2 936 197
+3 0 204
-3 211 443
+4 174 619
-4 830 602
+5 803 673
-5 522 548
+6 769 845
-6 985 640
+7 860 56
-7 31 405
+8 524 465
-8 858 84
+9 763 788
-9 709 218
+10 180 660
-10 466 555
+11 729 683
-11 134 557
+12 859 934
-12 941 378
+13 195 641
-13 639 509
+14 961 891
-14 392 247
+15 811 57
-15 101 802
+16 110 168
-16 334 731
+17 453 421
-17 131 104
+18 955 298
-18 274 927
+19 104 985
-19 544 508
+20 145 77
-20 317 583
+21 196 428
-21 22 743
+22 240 124
-22 486 309
+23 691 795
-23 418 271
+24 73 97
-24 338 256
+25 520 114
-25 604 51
+26 122 297
-26 775 506
+27 13 560
-27 354 701
+28 259 419
-28 253 539
+29 136 947
-29 58 878
+30 284 70
-30 666 106
+31 743 758
-31 168 592
+32 189 434
-32 264 332
+33 220 720
-33 840 833
+34 67 69
-34 692 312
+35 680 525
-35 322 713
+36 91 675
-36 153 335
+37 931 792
-37 152 646
+38 985 235
-38 384 595
+39 813 336
-39 85 95
+40 592 454
-40 577 167
+41 250 299
-41 278 641
+42 357 307
-42 839 921
+43 613 557
-43 615 529
+44 223 706
-44 673 696
+45 468 293
-45 676 231
+46 513 484
-46 448 519
+47 683 303
-47 911 632
+48 712 921
-48 396 722
PRECEDENCE_SECTION
+0 -0
+1 -1
+2 -2
+3 -3
+4 -4
+5 -5
+6 -6
+7 -7
+8 -8
+9 -9
+10 -10
+11 -11
+12 -12
+13 -13
+14 -14
+15 -15
+16 -16
+17 -17
+18 -18
+19 -19
+20 -20
+21 -21
+22 -22
+23 -23
+24 -24
+25 -25
+26 -26
+27 -27
+28 -28
+29 -29
+30 -30
+31 -31
+32 -32
+33 -33
+34 -34
+35 -35
+36 -36
+37 -37
+38 -38
+39 -39
+40 -40
+41 -41
+42 -42
+43 -43
+44 -44
+45 -45
+46 -46
+47 -47
+48 -48
EOF
